x	y
565.0	575.0
25.0	185.0
345.0	750.0
945.0	685.0
845.0	655.0
880.0	660.0
25.0	230.0
145.0	665.0
415.0	635.0
510.0	875.0  
560.0	365.0
300.0	465.0
520.0	585.0
480.0	415.0
835.0	625.0
975.0	580.0
1215.0	245.0
1320.0	315.0
1250.0	400.0
660.0	180.0
410.0	250.0
420.0	555.0